NAME : ClusterId_1005 
COMMENT : (Gillet and Johnson) 
TYPE : CVRP 
DIMENSION : 16 
EDGE_WEIGHT_TYPE : EUC_2D 
CAPACITY : 500 
NODE_COORD_SECTION 
1005 5911 1634 
185 5824 1045 
561 6169 1116 
453 5775 1203 
238 6022 1249 
338 6669 1393 
633 6301 1348 
693 6316 1381 
817 6673 1555 
183 6073 1447 
370 6306 1472 
444 6626 1757 
761 6298 1615 
975 6587 1978 
182 6637 2100 
600 6141 1924 
DEMAND_SECTION 
1005 1011
185 32
561 46
453 54
238 26
338 36
633 30
693 34
817 35
183 29
370 42
444 35
761 36
975 54
182 37
600 54
DEPOT_SECTION 
1005
 -1
EOF